     Program PWSCF v.5.2.0 starts on 23Jun2020 at 15:57:52

     Current dimensions of program PWSCF are:
     Max number of different atomic species (ntypx) = 10
     Max number of k-points (npk) =  40000
     Max angular momentum in pseudopotentials (lmaxx) =  3

     Subspace diagonalization in iterative solution of the eigenvalue problem:
     a serial algorithm will be used

     bravais-lattice index     =            4
     lattice parameter (alat)  =       5.9715  a.u.
     unit-cell volume          =     922.0586 (a.u.)^3
     number of atoms/cell      =            3
     number of atomic types    =            2
     number of electrons       =        18.00
     number of Kohn-Sham states=           13
     kinetic-energy cutoff     =      50.0000  Ry
     charge density cutoff     =     200.0000  Ry
     convergence threshold     =      1.0E-06
     mixing beta               =       0.7000
     number of iterations used =            8  plain     mixing
     Exchange-correlation      = SLA-PZ-NOGX-NOGC ( 1  1  0  0 0 0)

     celldm(1)=   5.971535  celldm(2)=   0.000000  celldm(3)=   5.000000
     celldm(4)=   0.000000  celldm(5)=   0.000000  celldm(6)=   0.000000

     crystal axes: (cart. coord. in units of alat)
               a(1) = (   1.000000   0.000000   0.000000 )
               a(2) = (  -0.500000   0.866025   0.000000 )
               a(3) = (   0.000000   0.000000   5.000000 )

     reciprocal axes: (cart. coord. in units 2 pi/alat)
               b(1) = (  1.000000  0.577350  0.000000 )
               b(2) = (  0.000000  1.154701  0.000000 )
               b(3) = (  0.000000  0.000000  0.200000 )

     PseudoPot. # 1 for  S read from file:
     ../PSEUDO/S.pz-hgh.UPF
     MD5 check sum: 38f9f902ee430b58f9df3cf2bf519617
     Pseudo is Norm-conserving, Zval =  6.0
     Generated in analytical, separable form
     Using radial grid of 1151 points,  3 beta functions with:
                l(1) =   0
                l(2) =   0
                l(3) =   1

     PseudoPot. # 2 for Mo read from file:
     ../PSEUDO/Mo.pz-hgh.UPF
     MD5 check sum: ddacfae2313397baf1b67b06fa6affd0
     Pseudo is Norm-conserving, Zval =  6.0
     Generated in analytical, separable form
     Using radial grid of 1229 points,  6 beta functions with:
                l(1) =   0
                l(2) =   0
                l(3) =   1
                l(4) =   1
                l(5) =   2
                l(6) =   2

     atomic species   valence    mass     pseudopotential
        S              6.00    32.06000      S( 1.00)
        Mo             6.00    95.95000     Mo( 1.00)

     12 Sym. Ops. (no inversion) found

                                    s                        frac. trans.

      isym =  1     identity

 cryst.   s( 1) = (     1          0          0      )
                  (     0          1          0      )
                  (     0          0          1      )

 cart.    s( 1) = (  1.0000000  0.0000000  0.0000000 )
                  (  0.0000000  1.0000000  0.0000000 )
                  (  0.0000000  0.0000000  1.0000000 )

      isym =  2     180 deg rotation - cart. axis [0,1,0]

[...]

      isym =  3     120 deg rotation - cryst. axis [0,0,1]

[...]

      isym =  6     180 deg rotation - cryst. axis [2,1,0]

[...]

      isym =  7     inv. 180 deg rotation - cart. axis [0,0,1]

[...]

      isym =  8     inv. 180 deg rotation - cart. axis [1,0,0]

[...]

      isym =  9     inv.  60 deg rotation - cryst. axis [0,0,1]

 cryst.   s( 9) = (    -1         -1          0      )
                  (     1          0          0      )
                  (     0          0         -1      )

 cart.    s( 9) = ( -0.5000000  0.8660254  0.0000000 )
                  ( -0.8660254 -0.5000000  0.0000000 )
                  (  0.0000000  0.0000000 -1.0000000 )

[...]

 cryst.   s(10) = (     0          1          0      )
                  (    -1         -1          0      )
                  (     0          0         -1      )

 cart.    s(10) = ( -0.5000000 -0.8660254  0.0000000 )
                  (  0.8660254 -0.5000000  0.0000000 )
                  (  0.0000000  0.0000000 -1.0000000 )

[...]

      isym = 12     inv. 180 deg rotation - cryst. axis [1,1,0]

 cryst.   s(12) = (     0         -1          0      )
                  (    -1          0          0      )
                  (     0          0          1      )

 cart.    s(12) = (  0.5000000 -0.8660254  0.0000000 )
                  ( -0.8660254 -0.5000000  0.0000000 )
                  (  0.0000000  0.0000000  1.0000000 )

     point group D_3h (-62m)
     there are  6 classes
     the character table:

       E     2C3   3C2   s_h   2S3   3s_v
A'_1   1.00  1.00  1.00  1.00  1.00  1.00
A'_2   1.00  1.00 -1.00  1.00  1.00 -1.00
E'     2.00 -1.00  0.00  2.00 -1.00  0.00
A''1   1.00  1.00  1.00 -1.00 -1.00 -1.00
A''2   1.00  1.00 -1.00 -1.00 -1.00  1.00
E''    2.00 -1.00  0.00 -2.00  1.00  0.00

     the symmetry operations in each class and the name of the first element:

     E        1
          identity
     2C3      3    4
          120 deg rotation - cryst. axis [0,0,1]
     3C2      2    6    5
          180 deg rotation - cart. axis [0,1,0]
     s_h      7
          inv. 180 deg rotation - cart. axis [0,0,1]
     2S3      9   10
          inv.  60 deg rotation - cryst. axis [0,0,1]
     3s_v     8   11   12
          inv. 180 deg rotation - cart. axis [1,0,0]

   Cartesian axes

     site n.     atom                  positions (alat units)
         1           Mo  tau(   1) = (   0.0000000   0.0000000   0.0000000  )
         2           S   tau(   2) = (   0.5000000   0.2886750  -0.4983114  )
         3           S   tau(   3) = (   0.5000000   0.2886750   0.4983114  )

   Crystallographic axes

     site n.     atom                  positions (cryst. coord.)
         1           Mo  tau(   1) = (  0.0000000  0.0000000  0.0000000  )
         2           S   tau(   2) = (  0.6666666  0.3333332 -0.0996623  )
         3           S   tau(   3) = (  0.6666666  0.3333332  0.0996623  )

     number of k points=    31  gaussian smearing, width (Ry)=  0.0100
                       cart. coord. in units 2pi/alat
        k(    1) = (   0.0000000   0.0000000   0.0000000), wk =   0.0138889
        k(    2) = (   0.0000000   0.0962250   0.0000000), wk =   0.0416667
        k(    3) = (   0.0000000   0.1924501   0.0000000), wk =   0.0416667
        k(    4) = (   0.0000000   0.2886751   0.0000000), wk =   0.0416667
        k(    5) = (   0.0000000   0.3849002   0.0000000), wk =   0.0416667
        k(    6) = (   0.0000000   0.4811252   0.0000000), wk =   0.0416667
        k(    7) = (   0.0000000  -0.5773503   0.0000000), wk =   0.0416667
        k(    8) = (   0.0833333   0.1443376   0.0000000), wk =   0.0833333
        k(    9) = (   0.0833333   0.2405626   0.0000000), wk =   0.0833333
        k(   10) = (   0.0833333   0.3367877   0.0000000), wk =   0.0833333
        k(   11) = (   0.0833333   0.4330127   0.0000000), wk =   0.0833333
        k(   12) = (   0.0833333   0.5292377   0.0000000), wk =   0.0833333
        k(   13) = (   0.1666667   0.2886751   0.0000000), wk =   0.0833333
        k(   14) = (   0.1666667   0.3849002   0.0000000), wk =   0.0833333
        k(   15) = (   0.1666667   0.4811252   0.0000000), wk =   0.0833333
        k(   16) = (   0.1666667   0.5773503   0.0000000), wk =   0.0833333
        k(   17) = (   0.2500000   0.4330127   0.0000000), wk =   0.0833333
        k(   18) = (   0.2500000   0.5292377   0.0000000), wk =   0.0833333
        k(   19) = (   0.3333333   0.5773503   0.0000000), wk =   0.0277778
        k(   20) = (   0.0000000  -0.0962250   0.0000000), wk =   0.0416667
        k(   21) = (   0.0000000  -0.1924501   0.0000000), wk =   0.0416667
        k(   22) = (   0.0000000  -0.2886751   0.0000000), wk =   0.0416667
        k(   23) = (   0.0000000  -0.3849002   0.0000000), wk =   0.0416667
        k(   24) = (   0.0000000  -0.4811252   0.0000000), wk =   0.0416667
        k(   25) = (  -0.0833333  -0.2405626   0.0000000), wk =   0.0833333
        k(   26) = (  -0.0833333  -0.3367877   0.0000000), wk =   0.0833333
        k(   27) = (  -0.0833333  -0.4330127   0.0000000), wk =   0.0833333
        k(   28) = (  -0.0833333  -0.5292377   0.0000000), wk =   0.0833333
        k(   29) = (  -0.1666667  -0.3849002   0.0000000), wk =   0.0833333
        k(   30) = (  -0.1666667  -0.4811252   0.0000000), wk =   0.0833333
        k(   31) = (  -0.2500000  -0.5292377   0.0000000), wk =   0.0833333

                       cryst. coord.
        k(    1) = (   0.0000000   0.0000000   0.0000000), wk =   0.0138889
        k(    2) = (   0.0000000   0.0833333   0.0000000), wk =   0.0416667
        k(    3) = (   0.0000000   0.1666667   0.0000000), wk =   0.0416667
        k(    4) = (   0.0000000   0.2500000   0.0000000), wk =   0.0416667
        k(    5) = (   0.0000000   0.3333333   0.0000000), wk =   0.0416667
        k(    6) = (   0.0000000   0.4166667   0.0000000), wk =   0.0416667
        k(    7) = (   0.0000000  -0.5000000   0.0000000), wk =   0.0416667
        k(    8) = (   0.0833333   0.0833333   0.0000000), wk =   0.0833333
        k(    9) = (   0.0833333   0.1666667   0.0000000), wk =   0.0833333
        k(   10) = (   0.0833333   0.2500000   0.0000000), wk =   0.0833333
        k(   11) = (   0.0833333   0.3333333   0.0000000), wk =   0.0833333
        k(   12) = (   0.0833333   0.4166667   0.0000000), wk =   0.0833333
        k(   13) = (   0.1666667   0.1666667   0.0000000), wk =   0.0833333
        k(   14) = (   0.1666667   0.2500000   0.0000000), wk =   0.0833333
        k(   15) = (   0.1666667   0.3333333   0.0000000), wk =   0.0833333
        k(   16) = (   0.1666667   0.4166667   0.0000000), wk =   0.0833333
        k(   17) = (   0.2500000   0.2500000   0.0000000), wk =   0.0833333
        k(   18) = (   0.2500000   0.3333333   0.0000000), wk =   0.0833333
        k(   19) = (   0.3333333   0.3333333   0.0000000), wk =   0.0277778
        k(   20) = (   0.0000000  -0.0833333   0.0000000), wk =   0.0416667
        k(   21) = (   0.0000000  -0.1666667   0.0000000), wk =   0.0416667
        k(   22) = (   0.0000000  -0.2500000   0.0000000), wk =   0.0416667
        k(   23) = (   0.0000000  -0.3333333   0.0000000), wk =   0.0416667
        k(   24) = (   0.0000000  -0.4166667   0.0000000), wk =   0.0416667
        k(   25) = (  -0.0833333  -0.1666667   0.0000000), wk =   0.0833333
        k(   26) = (  -0.0833333  -0.2500000   0.0000000), wk =   0.0833333
        k(   27) = (  -0.0833333  -0.3333333   0.0000000), wk =   0.0833333
        k(   28) = (  -0.0833333  -0.4166667   0.0000000), wk =   0.0833333
        k(   29) = (  -0.1666667  -0.2500000   0.0000000), wk =   0.0833333
        k(   30) = (  -0.1666667  -0.3333333   0.0000000), wk =   0.0833333
        k(   31) = (  -0.2500000  -0.3333333   0.0000000), wk =   0.0833333

     Largest allocated arrays     est. size (Mb)     dimensions
     Largest temporary arrays     est. size (Mb)     dimensions

     Initial potential from superposition of free atoms

     starting charge   15.99930, renormalised to   18.00000

     negative rho (up, down):  7.892E-05 0.000E+00
     Starting wfc are   27 randomized atomic wfcs

     Self-consistent Calculation

     iteration #  1     ecut=    50.00 Ry     beta=0.70
     Davidson diagonalization with overlap
     ethr =  1.00E-02,  avg # of iterations =  2.3

     negative rho (up, down):  4.334E-08 0.000E+00

     total energy              =     -56.37778659 Ry
     Harris-Foulkes estimate   =     -57.44774553 Ry
     estimated scf accuracy    <       1.32247770 Ry

[...]

     negative rho (up, down):  2.655E-08 0.000E+00

[...]

     total energy              =     -57.22682965 Ry
     Harris-Foulkes estimate   =     -57.22683290 Ry
     estimated scf accuracy    <       0.00000798 Ry

     iteration #  8     ecut=    50.00 Ry     beta=0.70
     Davidson diagonalization with overlap
     ethr =  4.43E-08,  avg # of iterations =  2.6

     End of self-consistent calculation

          k = 0.0000 0.0000 0.0000 (  5527 PWs)   bands (ev):

   -14.7093 -13.4724  -6.2301  -3.1210  -3.1210  -2.3797  -1.9522  -1.9522
    -0.6865   2.3912   2.3912   2.5567   2.5567

     occupation numbers
     1.0000   1.0000   1.0000   1.0000   1.0000   1.0000   1.0000   1.0000
     1.0000   0.0000   0.0000   0.0000   0.0000

[...]

          k = 0.0000-0.4811 0.0000 (  5490 PWs)   bands (ev):

[...]

          k =-0.0833-0.2406 0.0000 (  5512 PWs)   bands (ev):

[...]

          k =-0.2500-0.5292 0.0000 (  5508 PWs)   bands (ev):

   -12.5774 -12.3679  -5.8511  -5.6261  -4.4002  -3.7831  -3.6676  -2.5458
    -0.7253   1.5044   2.5613   2.8568   4.4476

     occupation numbers
     1.0000   1.0000   1.0000   1.0000   1.0000   1.0000   1.0000   1.0000
     1.0000   0.0000   0.0000   0.0000   0.0000

     the Fermi energy is     0.5554 ev

!    total energy              =     -57.22683142 Ry
     Harris-Foulkes estimate   =     -57.22683194 Ry
     estimated scf accuracy    <       0.00000061 Ry

     The total energy is the sum of the following terms:

     one-electron contribution =    -301.51010908 Ry
     hartree contribution      =     155.62476907 Ry
     xc contribution           =     -13.11717374 Ry
     ewald contribution        =     101.77568233 Ry
     smearing contrib. (-TS)   =      -0.00000000 Ry

     convergence has been achieved in   8 iterations

     Forces acting on atoms (Ry/au):

     atom    1 type  2   force =     0.00000000   -0.00000000    0.00000000
     atom    2 type  1   force =     0.00000000    0.00000000    0.01227970
     atom    3 type  1   force =     0.00000000    0.00000000   -0.01227970
     The non-local contrib.  to forces
     atom    1 type  2   force =     0.00000000    0.00000000    0.00000000
     atom    2 type  1   force =     0.00000000    0.00000000    0.34645353
     atom    3 type  1   force =     0.00000000    0.00000000   -0.34645353
     The ionic contribution  to forces
     atom    1 type  2   force =     0.00000000   -0.00000094    0.00000000
     atom    2 type  1   force =    -0.00000000    0.00000047  -19.55135382
     atom    3 type  1   force =    -0.00000000    0.00000047   19.55135382
     The local contribution  to forces
     atom    1 type  2   force =    -0.00000000    0.00000000    0.00000000
     atom    2 type  1   force =     0.00000000   -0.00000081   19.21555997
     atom    3 type  1   force =     0.00000000   -0.00000081  -19.21555997
     The core correction contribution to forces
     atom    1 type  2   force =     0.00000000    0.00000000    0.00000000
     atom    2 type  1   force =     0.00000000    0.00000000    0.00000000
     atom    3 type  1   force =     0.00000000    0.00000000    0.00000000
     The Hubbard contrib.    to forces
     atom    1 type  2   force =     0.00000000    0.00000000    0.00000000
     atom    2 type  1   force =     0.00000000    0.00000000    0.00000000
     atom    3 type  1   force =     0.00000000    0.00000000    0.00000000
     The SCF correction term to forces
     atom    1 type  2   force =    -0.00000000    0.00000000    0.00000000
     atom    2 type  1   force =    -0.00000000   -0.00000000    0.00162001
     atom    3 type  1   force =    -0.00000000   -0.00000000   -0.00162001

     Total force =     0.017366     Total SCF correction =     0.002291
     SCF correction compared to forces is large: reduce conv_thr to get better values

     Writing output data file MoS2.save

     General routines

     Parallel routines

   This run was terminated on:  15:58:14  23Jun2020

   JOB DONE.